c Command line: hgen8 205 90
p cnf 205 314
172 178 165 5 0
27 113 71 90 0
85 135 14 147 0
176 109 149 122 0
156 120 196 144 0
44 169 189 31 0
179 82 30 138 0
173 75 136 38 0
170 185 180 98 0
24 129 112 67 0
191 123 106 127 0
25 1 133 4 0
100 86 2 158 0
124 162 181 73 0
197 11 80 57 0
139 167 96 155 0
151 70 175 182 0
116 140 26 72 0
42 40 56 107 0
64 146 203 105 0
9 60 164 66 0
201 95 49 58 0
21 200 52 141 0
187 177 68 148 0
161 37 84 35 0
48 63 8 168 0
79 204 121 159 0
99 69 43 76 0
39 74 205 114 0
108 54 55 101 0
91 45 93 20 0
115 34 77 94 0
81 47 15 103 0
130 28 17 18 0
16 110 145 132 0
32 192 188 3 0
53 62 153 143 0
171 166 193 59 0
119 174 13 137 0
154 29 184 7 0
150 199 160 22 0
195 190 41 186 0
-1 -2 0
-1 -3 0
-1 -4 0
-1 -5 0
-2 -3 0
-2 -4 0
-2 -5 0
-3 -4 0
-3 -5 0
-4 -5 0
-7 -8 0
-7 -9 0
-8 -9 0
-11 -13 0
-11 -14 0
-11 -15 0
-13 -14 0
-13 -15 0
-14 -15 0
-16 -17 0
-16 -18 0
-16 -20 0
-17 -18 0
-17 -20 0
-18 -20 0
-21 -22 0
-21 -24 0
-21 -25 0
-22 -24 0
-22 -25 0
-24 -25 0
-26 -27 0
-26 -28 0
-26 -29 0
-26 -30 0
-27 -28 0
-27 -29 0
-27 -30 0
-28 -29 0
-28 -30 0
-29 -30 0
-31 -32 0
-31 -34 0
-31 -35 0
-32 -34 0
-32 -35 0
-34 -35 0
-37 -38 0
-37 -39 0
-37 -40 0
-38 -39 0
-38 -40 0
-39 -40 0
-41 -42 0
-41 -43 0
-41 -44 0
-41 -45 0
-42 -43 0
-42 -44 0
-42 -45 0
-43 -44 0
-43 -45 0
-44 -45 0
-47 -48 0
-47 -49 0
-48 -49 0
-52 -53 0
-52 -54 0
-52 -55 0
-53 -54 0
-53 -55 0
-54 -55 0
-56 -57 0
-56 -58 0
-56 -59 0
-56 -60 0
-57 -58 0
-57 -59 0
-57 -60 0
-58 -59 0
-58 -60 0
-59 -60 0
-62 -63 0
-62 -64 0
-63 -64 0
-66 -67 0
-66 -68 0
-66 -69 0
-66 -70 0
-67 -68 0
-67 -69 0
-67 -70 0
-68 -69 0
-68 -70 0
-69 -70 0
-71 -72 0
-71 -73 0
-71 -74 0
-71 -75 0
-72 -73 0
-72 -74 0
-72 -75 0
-73 -74 0
-73 -75 0
-74 -75 0
-76 -77 0
-76 -79 0
-76 -80 0
-77 -79 0
-77 -80 0
-79 -80 0
-81 -82 0
-81 -84 0
-81 -85 0
-82 -84 0
-82 -85 0
-84 -85 0
-86 -90 0
-91 -93 0
-91 -94 0
-91 -95 0
-93 -94 0
-93 -95 0
-94 -95 0
-96 -98 0
-96 -99 0
-96 -100 0
-98 -99 0
-98 -100 0
-99 -100 0
-101 -103 0
-101 -105 0
-103 -105 0
-106 -107 0
-106 -108 0
-106 -109 0
-106 -110 0
-107 -108 0
-107 -109 0
-107 -110 0
-108 -109 0
-108 -110 0
-109 -110 0
-112 -113 0
-112 -114 0
-112 -115 0
-113 -114 0
-113 -115 0
-114 -115 0
-116 -119 0
-116 -120 0
-119 -120 0
-121 -122 0
-121 -123 0
-121 -124 0
-122 -123 0
-122 -124 0
-123 -124 0
-127 -129 0
-127 -130 0
-129 -130 0
-132 -133 0
-132 -135 0
-133 -135 0
-136 -137 0
-136 -138 0
-136 -139 0
-136 -140 0
-137 -138 0
-137 -139 0
-137 -140 0
-138 -139 0
-138 -140 0
-139 -140 0
-141 -143 0
-141 -144 0
-141 -145 0
-143 -144 0
-143 -145 0
-144 -145 0
-146 -147 0
-146 -148 0
-146 -149 0
-146 -150 0
-147 -148 0
-147 -149 0
-147 -150 0
-148 -149 0
-148 -150 0
-149 -150 0
-151 -153 0
-151 -154 0
-151 -155 0
-153 -154 0
-153 -155 0
-154 -155 0
-156 -158 0
-156 -159 0
-156 -160 0
-158 -159 0
-158 -160 0
-159 -160 0
-161 -162 0
-161 -164 0
-161 -165 0
-162 -164 0
-162 -165 0
-164 -165 0
-166 -167 0
-166 -168 0
-166 -169 0
-166 -170 0
-167 -168 0
-167 -169 0
-167 -170 0
-168 -169 0
-168 -170 0
-169 -170 0
-171 -172 0
-171 -173 0
-171 -174 0
-171 -175 0
-172 -173 0
-172 -174 0
-172 -175 0
-173 -174 0
-173 -175 0
-174 -175 0
-176 -177 0
-176 -178 0
-176 -179 0
-176 -180 0
-177 -178 0
-177 -179 0
-177 -180 0
-178 -179 0
-178 -180 0
-179 -180 0
-181 -182 0
-181 -184 0
-181 -185 0
-182 -184 0
-182 -185 0
-184 -185 0
-186 -187 0
-186 -188 0
-186 -189 0
-186 -190 0
-187 -188 0
-187 -189 0
-187 -190 0
-188 -189 0
-188 -190 0
-189 -190 0
-191 -192 0
-191 -193 0
-191 -195 0
-192 -193 0
-192 -195 0
-193 -195 0
-196 -197 0
-196 -199 0
-196 -200 0
-197 -199 0
-197 -200 0
-199 -200 0
-201 -203 0
-201 -204 0
-201 -205 0
-203 -204 0
-203 -205 0
-204 -205 0
